n_res = 4;
rc = [ 24, 25, 27, 25 ];
n_tasks = 30;
d = [ 7, 7, 6, 7, 7, 7, 3, 4, 6, 2, 1, 1, 5, 3, 4, 1, 6, 5, 4, 10, 5, 9, 7, 10, 5, 6, 6, 7, 7, 7 ];
rr = [| 1, 6, 6, 5, 10, 7, 3, 1, 9, 6, 8, 6, 6, 4, 5, 2, 9, 8, 2, 2, 9, 8, 10, 9, 5, 5, 1, 2, 8, 3
      | 9, 10, 5, 9, 2, 2, 5, 9, 2, 8, 8, 2, 9, 7, 6, 8, 5, 10, 8, 8, 9, 5, 7, 1, 9, 8, 8, 3, 5, 1
      | 7, 2, 2, 9, 7, 5, 7, 5, 3, 1, 2, 9, 7, 8, 1, 6, 3, 10, 8, 5, 8, 1, 6, 10, 10, 6, 5, 9, 6, 4
      | 2, 1, 4, 2, 7, 2, 8, 1, 8, 10, 8, 7, 4, 5, 7, 1, 9, 7, 6, 4, 1, 9, 7, 4, 9, 5, 10, 10, 9, 5 |];
suc = [ { 2 }, 
        { 3 }, 
        { 4 }, 
        { 5 }, 
        { 6 }, 
        { 7 }, 
        { 8 }, 
        { 9 }, 
        { 10 }, 
        { 11 }, 
        { 12 }, 
        { 13 }, 
        { 14 }, 
        { 15 }, 
        { 16 }, 
        { 17 }, 
        { 18 }, 
        { 19 }, 
        { 20 }, 
        { 21 }, 
        { 22 }, 
        { 23 }, 
        { 24 }, 
        { 25 }, 
        { 26 }, 
        { 27 }, 
        { 28 }, 
        { 29 }, 
        { 30 }, 
        {  }]; 
